<number of tasks>
50

<cycle time>
1000

<order strength>
0.598


<task times>
1 580
2 654
3 471
4 714
5 361
6 408
7 443
8 508
9 528
10 480
11 522
12 399
13 539
14 350
15 367
16 482
17 366
18 531
19 436
20 587
21 578
22 457
23 719
24 395
25 773
26 421
27 510
28 355
29 513
30 197
31 675
32 505
33 560
34 520
35 529
36 441
37 627
38 455
39 665
40 464
41 558
42 444
43 263
44 532
45 531
46 709
47 516
48 508
49 464
50 642

<precedence relations>
1,4
2,4
2,5
2,7
3,6
3,21
4,11
4,15
4,27
5,10
6,8
6,9
7,8
7,9
7,10
8,13
8,29
9,14
9,16
9,25
10,15
11,12
12,16
12,17
13,16
14,18
14,19
15,17
16,22
17,20
17,21
17,22
18,22
19,20
19,23
20,24
20,28
21,25
21,29
22,26
22,30
23,27
23,29
24,31
24,32
26,32
26,34
27,43
27,44
28,44
29,46
30,33
30,45
31,35
32,37
32,38
32,40
33,36
33,37
33,40
33,44
34,35
34,39
34,43
36,42
38,44
39,45
39,46
40,41
40,43
41,50
42,48
43,47
43,49
44,50

<end>
